FourierSAT_Github_AIJ/benchmarks/MAXSAT_benchmarks/crafted/3/bipartite/maxcut-140-630-0.8/maxcut-140-630-0.8-10.cnf
c strEdges: 125  randomEdges: 504 
c degrees:  1  2 
c girth: Inf max: -43.604516  
c Hgirth mixed MAXCUT instance
c generated from an undirected graph
c to solve unweighted MaxCut
p cnf 140 1258
18 134 0
-18 -134 0
18 21 0
-18 -21 0
105 73 0
-105 -73 0
105 97 0
-105 -97 0
114 19 0
-114 -19 0
114 45 0
-114 -45 0
109 62 0
-109 -62 0
55 119 0
-55 -119 0
76 101 0
-76 -101 0
76 36 0
-76 -36 0
25 86 0
-25 -86 0
25 62 0
-25 -62 0
70 56 0
-70 -56 0
70 101 0
-70 -101 0
136 106 0
-136 -106 0
37 20 0
-37 -20 0
37 91 0
-37 -91 0
89 124 0
-89 -124 0
89 106 0
-89 -106 0
53 35 0
-53 -35 0
53 2 0
-53 -2 0
88 21 0
-88 -21 0
88 119 0
-88 -119 0
27 75 0
-27 -75 0
27 22 0
-27 -22 0
72 28 0
-72 -28 0
72 66 0
-72 -66 0
78 132 0
-78 -132 0
12 23 0
-12 -23 0
137 92 0
-137 -92 0
137 134 0
-137 -134 0
51 44 0
-51 -44 0
51 8 0
-51 -8 0
29 66 0
-29 -66 0
29 24 0
-29 -24 0
13 8 0
-13 -8 0
13 103 0
-13 -103 0
121 96 0
-121 -96 0
121 4 0
-121 -4 0
59 103 0
-59 -103 0
59 107 0
-59 -107 0
17 107 0
-17 -107 0
17 1 0
-17 -1 0
123 115 0
-123 -115 0
117 40 0
-117 -40 0
117 31 0
-117 -31 0
46 138 0
-46 -138 0
46 35 0
-46 -35 0
7 22 0
-7 -22 0
9 140 0
-9 -140 0
9 50 0
-9 -50 0
108 82 0
-108 -82 0
108 68 0
-108 -68 0
58 38 0
-58 -38 0
79 34 0
-79 -34 0
79 74 0
-79 -74 0
42 45 0
-42 -45 0
42 115 0
-42 -115 0
67 102 0
-67 -102 0
67 52 0
-67 -52 0
33 85 0
-33 -85 0
33 104 0
-33 -104 0
93 94 0
-93 -94 0
16 24 0
-16 -24 0
16 44 0
-16 -44 0
14 65 0
-14 -65 0
100 61 0
-100 -61 0
100 54 0
-100 -54 0
90 83 0
-90 -83 0
90 98 0
-90 -98 0
118 98 0
-118 -98 0
118 38 0
-118 -38 0
15 116 0
-15 -116 0
5 135 0
-5 -135 0
5 61 0
-5 -61 0
32 52 0
-32 -52 0
32 138 0
-32 -138 0
77 26 0
-77 -26 0
77 39 0
-77 -39 0
63 97 0
-63 -97 0
63 126 0
-63 -126 0
84 120 0
-84 -120 0
84 56 0
-84 -56 0
81 104 0
-81 -104 0
81 116 0
-81 -116 0
112 74 0
-112 -74 0
112 19 0
-112 -19 0
48 39 0
-48 -39 0
48 128 0
-48 -128 0
69 113 0
-69 -113 0
69 135 0
-69 -135 0
30 95 0
-30 -95 0
30 40 0
-30 -40 0
3 87 0
-3 -87 0
3 82 0
-3 -82 0
99 50 0
-99 -50 0
110 128 0
-110 -128 0
110 23 0
-110 -23 0
129 6 0
-129 -6 0
129 92 0
-129 -92 0
133 126 0
-133 -126 0
133 95 0
-133 -95 0
43 57 0
-43 -57 0
43 75 0
-43 -75 0
10 91 0
-10 -91 0
10 102 0
-10 -102 0
122 36 0
-122 -36 0
122 94 0
-122 -94 0
71 31 0
-71 -31 0
139 49 0
-139 -49 0
139 120 0
-139 -120 0
64 80 0
-64 -80 0
125 131 0
-125 -131 0
125 132 0
-125 -132 0
127 2 0
-127 -2 0
41 1 0
-41 -1 0
41 20 0
-41 -20 0
130 54 0
-130 -54 0
130 85 0
-130 -85 0
60 68 0
-60 -68 0
60 113 0
-60 -113 0
47 4 0
-47 -4 0
47 73 0
-47 -73 0
11 111 0
-11 -111 0
11 6 0
-11 -6 0
109 65 0
-109 -65 0
29 2 0
-29 -2 0
56 23 0
-56 -23 0
35 138 0
-35 -138 0
33 126 0
-33 -126 0
30 116 0
-30 -116 0
124 115 0
-124 -115 0
112 122 0
-112 -122 0
53 24 0
-53 -24 0
67 6 0
-67 -6 0
25 99 0
-25 -99 0
30 128 0
-30 -128 0
118 116 0
-118 -116 0
108 116 0
-108 -116 0
90 95 0
-90 -95 0
114 66 0
-114 -66 0
106 22 0
-106 -22 0
101 1 0
-101 -1 0
23 104 0
-23 -104 0
70 95 0
-70 -95 0
139 39 0
-139 -39 0
90 107 0
-90 -107 0
103 54 0
-103 -54 0
16 62 0
-16 -62 0
137 4 0
-137 -4 0
106 104 0
-106 -104 0
43 104 0
-43 -104 0
3 94 0
-3 -94 0
28 52 0
-28 -52 0
105 120 0
-105 -120 0
69 94 0
-69 -94 0
123 83 0
-123 -83 0
33 26 0
-33 -26 0
69 68 0
-69 -68 0
38 52 0
-38 -52 0
59 30 0
-59 -30 0
32 131 0
-32 -131 0
105 89 0
-105 -89 0
105 82 0
-105 -82 0
64 40 0
-64 -40 0
130 138 0
-130 -138 0
79 112 0
-79 -112 0
85 126 0
-85 -126 0
136 10 0
-136 -10 0
78 54 0
-78 -54 0
76 119 0
-76 -119 0
12 74 0
-12 -74 0
94 2 0
-94 -2 0
73 98 0
-73 -98 0
119 66 0
-119 -66 0
32 38 0
-32 -38 0
7 97 0
-7 -97 0
110 96 0
-110 -96 0
37 61 0
-37 -61 0
25 129 0
-25 -129 0
53 17 0
-53 -17 0
67 75 0
-67 -75 0
139 102 0
-139 -102 0
76 39 0
-76 -39 0
102 97 0
-102 -97 0
107 128 0
-107 -128 0
7 130 0
-7 -130 0
81 98 0
-81 -98 0
134 82 0
-134 -82 0
127 40 0
-127 -40 0
21 98 0
-21 -98 0
136 128 0
-136 -128 0
104 80 0
-104 -80 0
75 97 0
-75 -97 0
76 113 0
-76 -113 0
19 111 0
-19 -111 0
77 22 0
-77 -22 0
139 101 0
-139 -101 0
121 45 0
-121 -45 0
32 126 0
-32 -126 0
112 116 0
-112 -116 0
15 74 0
-15 -74 0
18 36 0
-18 -36 0
129 113 0
-129 -113 0
37 2 0
-37 -2 0
86 85 0
-86 -85 0
75 4 0
-75 -4 0
109 50 0
-109 -50 0
78 43 0
-78 -43 0
93 124 0
-93 -124 0
37 8 0
-37 -8 0
43 85 0
-43 -85 0
130 68 0
-130 -68 0
106 120 0
-106 -120 0
55 68 0
-55 -68 0
3 124 0
-3 -124 0
41 134 0
-41 -134 0
76 89 0
-76 -89 0
18 1 0
-18 -1 0
100 107 0
-100 -107 0
12 94 0
-12 -94 0
89 113 0
-89 -113 0
84 99 0
-84 -99 0
14 57 0
-14 -57 0
24 36 0
-24 -36 0
108 100 0
-108 -100 0
37 115 0
-37 -115 0
139 4 0
-139 -4 0
72 131 0
-72 -131 0
9 97 0
-9 -97 0
29 106 0
-29 -106 0
89 73 0
-89 -73 0
84 101 0
-84 -101 0
46 96 0
-46 -96 0
136 7 0
-136 -7 0
29 122 0
-29 -122 0
70 14 0
-70 -14 0
130 1 0
-130 -1 0
110 126 0
-110 -126 0
21 95 0
-21 -95 0
110 10 0
-110 -10 0
25 67 0
-25 -67 0
44 31 0
-44 -31 0
27 83 0
-27 -83 0
27 139 0
-27 -139 0
59 61 0
-59 -61 0
125 24 0
-125 -24 0
39 87 0
-39 -87 0
60 44 0
-60 -44 0
51 47 0
-51 -47 0
13 116 0
-13 -116 0
104 39 0
-104 -39 0
11 128 0
-11 -128 0
37 72 0
-37 -72 0
74 113 0
-74 -113 0
79 67 0
-79 -67 0
106 61 0
-106 -61 0
90 15 0
-90 -15 0
108 52 0
-108 -52 0
46 54 0
-46 -54 0
100 91 0
-100 -91 0
58 138 0
-58 -138 0
109 127 0
-109 -127 0
30 87 0
-30 -87 0
46 83 0
-46 -83 0
93 49 0
-93 -49 0
72 118 0
-72 -118 0
124 34 0
-124 -34 0
118 50 0
-118 -50 0
70 9 0
-70 -9 0
98 128 0
-98 -128 0
13 11 0
-13 -11 0
63 36 0
-63 -36 0
55 44 0
-55 -44 0
53 36 0
-53 -36 0
3 80 0
-3 -80 0
73 20 0
-73 -20 0
137 135 0
-137 -135 0
53 102 0
-53 -102 0
119 35 0
-119 -35 0
90 56 0
-90 -56 0
79 44 0
-79 -44 0
64 125 0
-64 -125 0
124 75 0
-124 -75 0
71 107 0
-71 -107 0
72 63 0
-72 -63 0
57 49 0
-57 -49 0
40 91 0
-40 -91 0
6 91 0
-6 -91 0
84 87 0
-84 -87 0
24 1 0
-24 -1 0
136 5 0
-136 -5 0
124 26 0
-124 -26 0
77 122 0
-77 -122 0
77 74 0
-77 -74 0
108 16 0
-108 -16 0
42 2 0
-42 -2 0
53 1 0
-53 -1 0
32 102 0
-32 -102 0
8 50 0
-8 -50 0
13 26 0
-13 -26 0
117 94 0
-117 -94 0
67 62 0
-67 -62 0
118 134 0
-118 -134 0
79 31 0
-79 -31 0
62 86 0
-62 -86 0
50 54 0
-50 -54 0
118 140 0
-118 -140 0
15 132 0
-15 -132 0
117 110 0
-117 -110 0
125 116 0
-125 -116 0
114 47 0
-114 -47 0
79 1 0
-79 -1 0
99 28 0
-99 -28 0
90 38 0
-90 -38 0
99 8 0
-99 -8 0
72 60 0
-72 -60 0
88 87 0
-88 -87 0
88 29 0
-88 -29 0
78 95 0
-78 -95 0
108 130 0
-108 -130 0
60 11 0
-60 -11 0
16 23 0
-16 -23 0
133 106 0
-133 -106 0
51 29 0
-51 -29 0
15 120 0
-15 -120 0
16 125 0
-16 -125 0
112 126 0
-112 -126 0
112 139 0
-112 -139 0
56 82 0
-56 -82 0
108 84 0
-108 -84 0
140 34 0
-140 -34 0
115 65 0
-115 -65 0
86 61 0
-86 -61 0
31 131 0
-31 -131 0
93 91 0
-93 -91 0
60 23 0
-60 -23 0
83 26 0
-83 -26 0
72 95 0
-72 -95 0
24 97 0
-24 -97 0
77 19 0
-77 -19 0
127 20 0
-127 -20 0
41 8 0
-41 -8 0
15 102 0
-15 -102 0
40 4 0
-40 -4 0
46 85 0
-46 -85 0
25 47 0
-25 -47 0
17 52 0
-17 -52 0
37 64 0
-37 -64 0
20 34 0
-20 -34 0
32 11 0
-32 -11 0
61 128 0
-61 -128 0
106 113 0
-106 -113 0
110 95 0
-110 -95 0
122 23 0
-122 -23 0
5 82 0
-5 -82 0
48 124 0
-48 -124 0
88 14 0
-88 -14 0
69 22 0
-69 -22 0
65 57 0
-65 -57 0
15 111 0
-15 -111 0
113 80 0
-113 -80 0
123 110 0
-123 -110 0
12 42 0
-12 -42 0
122 132 0
-122 -132 0
96 34 0
-96 -34 0
136 115 0
-136 -115 0
106 98 0
-106 -98 0
7 129 0
-7 -129 0
3 49 0
-3 -49 0
3 2 0
-3 -2 0
89 66 0
-89 -66 0
100 127 0
-100 -127 0
100 56 0
-100 -56 0
139 65 0
-139 -65 0
27 100 0
-27 -100 0
139 119 0
-139 -119 0
3 26 0
-3 -26 0
127 85 0
-127 -85 0
29 138 0
-29 -138 0
118 52 0
-118 -52 0
105 55 0
-105 -55 0
133 122 0
-133 -122 0
52 74 0
-52 -74 0
98 131 0
-98 -131 0
91 54 0
-91 -54 0
59 39 0
-59 -39 0
32 91 0
-32 -91 0
93 138 0
-93 -138 0
79 10 0
-79 -10 0
44 104 0
-44 -104 0
67 26 0
-67 -26 0
33 1 0
-33 -1 0
19 40 0
-19 -40 0
70 98 0
-70 -98 0
88 65 0
-88 -65 0
73 39 0
-73 -39 0
117 28 0
-117 -28 0
89 130 0
-89 -130 0
124 96 0
-124 -96 0
63 119 0
-63 -119 0
121 48 0
-121 -48 0
131 111 0
-131 -111 0
132 95 0
-132 -95 0
72 135 0
-72 -135 0
53 46 0
-53 -46 0
125 82 0
-125 -82 0
136 127 0
-136 -127 0
110 49 0
-110 -49 0
70 10 0
-70 -10 0
48 129 0
-48 -129 0
62 68 0
-62 -68 0
42 103 0
-42 -103 0
79 138 0
-79 -138 0
64 45 0
-64 -45 0
101 102 0
-101 -102 0
99 126 0
-99 -126 0
5 75 0
-5 -75 0
59 14 0
-59 -14 0
110 61 0
-110 -61 0
90 28 0
-90 -28 0
53 14 0
-53 -14 0
50 31 0
-50 -31 0
140 24 0
-140 -24 0
115 82 0
-115 -82 0
79 94 0
-79 -94 0
64 28 0
-64 -28 0
55 138 0
-55 -138 0
77 99 0
-77 -99 0
109 100 0
-109 -100 0
93 134 0
-93 -134 0
48 38 0
-48 -38 0
32 139 0
-32 -139 0
117 104 0
-117 -104 0
17 58 0
-17 -58 0
132 120 0
-132 -120 0
121 69 0
-121 -69 0
93 63 0
-93 -63 0
71 8 0
-71 -8 0
122 4 0
-122 -4 0
55 122 0
-55 -122 0
119 83 0
-119 -83 0
48 34 0
-48 -34 0
121 86 0
-121 -86 0
58 82 0
-58 -82 0
119 36 0
-119 -36 0
133 120 0
-133 -120 0
78 10 0
-78 -10 0
132 44 0
-132 -44 0
38 98 0
-38 -98 0
124 94 0
-124 -94 0
30 23 0
-30 -23 0
51 45 0
-51 -45 0
59 129 0
-59 -129 0
79 120 0
-79 -120 0
124 61 0
-124 -61 0
124 116 0
-124 -116 0
28 113 0
-28 -113 0
5 10 0
-5 -10 0
100 24 0
-100 -24 0
86 44 0
-86 -44 0
58 92 0
-58 -92 0
52 1 0
-52 -1 0
7 128 0
-7 -128 0
84 36 0
-84 -36 0
48 69 0
-48 -69 0
33 81 0
-33 -81 0
114 109 0
-114 -109 0
17 138 0
-17 -138 0
125 85 0
-125 -85 0
33 138 0
-33 -138 0
40 1 0
-40 -1 0
106 49 0
-106 -49 0
72 69 0
-72 -69 0
19 92 0
-19 -92 0
35 68 0
-35 -68 0
88 34 0
-88 -34 0
70 16 0
-70 -16 0
43 116 0
-43 -116 0
102 39 0
-102 -39 0
29 124 0
-29 -124 0
127 97 0
-127 -97 0
98 87 0
-98 -87 0
117 86 0
-117 -86 0
46 101 0
-46 -101 0
130 131 0
-130 -131 0
12 128 0
-12 -128 0
19 35 0
-19 -35 0
71 101 0
-71 -101 0
109 135 0
-109 -135 0
107 116 0
-107 -116 0
92 68 0
-92 -68 0
110 139 0
-110 -139 0
137 3 0
-137 -3 0
63 112 0
-63 -112 0
25 11 0
-25 -11 0
47 44 0
-47 -44 0
46 97 0
-46 -97 0
55 47 0
-55 -47 0
3 122 0
-3 -122 0
46 111 0
-46 -111 0
139 38 0
-139 -38 0
117 139 0
-117 -139 0
20 83 0
-20 -83 0
55 23 0
-55 -23 0
16 57 0
-16 -57 0
44 80 0
-44 -80 0
132 103 0
-132 -103 0
16 83 0
-16 -83 0
89 121 0
-89 -121 0
16 5 0
-16 -5 0
130 56 0
-130 -56 0
48 60 0
-48 -60 0
37 44 0
-37 -44 0
12 95 0
-12 -95 0
46 118 0
-46 -118 0
73 24 0
-73 -24 0
17 33 0
-17 -33 0
19 21 0
-19 -21 0
95 87 0
-95 -87 0
42 140 0
-42 -140 0
119 82 0
-119 -82 0
122 73 0
-122 -73 0
123 41 0
-123 -41 0
59 44 0
-59 -44 0
129 139 0
-129 -139 0
45 113 0
-45 -113 0
116 113 0
-116 -113 0
108 96 0
-108 -96 0
76 34 0
-76 -34 0
64 21 0
-64 -21 0
64 96 0
-64 -96 0
88 84 0
-88 -84 0
97 113 0
-97 -113 0
10 101 0
-10 -101 0
3 19 0
-3 -19 0
112 83 0
-112 -83 0
40 98 0
-40 -98 0
94 98 0
-94 -98 0
7 23 0
-7 -23 0
84 62 0
-84 -62 0
130 6 0
-130 -6 0
88 135 0
-88 -135 0
114 68 0
-114 -68 0
16 35 0
-16 -35 0
100 21 0
-100 -21 0
33 130 0
-33 -130 0
137 20 0
-137 -20 0
3 21 0
-3 -21 0
29 108 0
-29 -108 0
136 71 0
-136 -71 0
15 112 0
-15 -112 0
100 6 0
-100 -6 0
58 8 0
-58 -8 0
47 111 0
-47 -111 0
35 98 0
-35 -98 0
48 47 0
-48 -47 0
15 77 0
-15 -77 0
10 85 0
-10 -85 0
139 68 0
-139 -68 0
119 45 0
-119 -45 0
77 134 0
-77 -134 0
14 119 0
-14 -119 0
41 54 0
-41 -54 0
82 57 0
-82 -57 0
105 62 0
-105 -62 0
69 102 0
-69 -102 0
70 119 0
-70 -119 0
41 75 0
-41 -75 0
66 4 0
-66 -4 0
63 122 0
-63 -122 0
118 60 0
-118 -60 0
78 120 0
-78 -120 0
49 2 0
-49 -2 0
7 2 0
-7 -2 0
44 52 0
-44 -52 0
51 4 0
-51 -4 0
20 49 0
-20 -49 0
25 63 0
-25 -63 0
42 47 0
-42 -47 0
78 92 0
-78 -92 0
14 77 0
-14 -77 0
127 54 0
-127 -54 0
27 126 0
-27 -126 0
130 113 0
-130 -113 0
133 20 0
-133 -20 0
115 111 0
-115 -111 0
13 138 0
-13 -138 0
130 24 0
-130 -24 0
62 8 0
-62 -8 0
29 68 0
-29 -68 0
63 20 0
-63 -20 0
88 5 0
-88 -5 0
30 1 0
-30 -1 0
21 83 0
-21 -83 0
123 127 0
-123 -127 0
129 47 0
-129 -47 0
89 88 0
-89 -88 0
62 21 0
-62 -21 0
16 138 0
-16 -138 0
13 113 0
-13 -113 0
73 28 0
-73 -28 0
70 100 0
-70 -100 0
59 42 0
-59 -42 0
70 117 0
-70 -117 0
48 24 0
-48 -24 0
29 6 0
-29 -6 0
41 91 0
-41 -91 0
86 1 0
-86 -1 0
8 138 0
-8 -138 0
109 52 0
-109 -52 0
89 122 0
-89 -122 0
59 35 0
-59 -35 0
109 99 0
-109 -99 0
101 91 0
-101 -91 0
136 15 0
-136 -15 0
43 65 0
-43 -65 0
62 131 0
-62 -131 0
16 49 0
-16 -49 0
51 138 0
-51 -138 0
7 52 0
-7 -52 0
37 94 0
-37 -94 0
90 26 0
-90 -26 0
107 94 0
-107 -94 0
72 78 0
-72 -78 0
5 120 0
-5 -120 0
46 131 0
-46 -131 0
10 23 0
-10 -23 0
84 82 0
-84 -82 0
