FourierSAT_Github_AIJ/res/fs_1core/maxcut-140-630-0.8-10.cnf.txt
o 200
o 199
o 197
